(set-logic BV) (define-fun origCir ((i_7 Bool) (i_8 Bool) (i_5 Bool) (i_6 Bool)) Bool (and (not (and (not (and i_8 i_7)) i_5)) (xor (or (or (not i_6) i_5) (and (not i_8) i_7)) i_6))) (synth-fun skel ((i_7 Bool) (i_8 Bool) (i_5 Bool) (i_6 Bool)) Bool) (declare-var i_7 Bool) (declare-var i_8 Bool) (declare-var i_5 Bool) (declare-var i_6 Bool) (constraint (= (origCir i_7 i_8 i_5 i_6) (skel i_7 i_8 i_5 i_6))) (check-synth)
